# Solution for model GasLib-40
# Objective value = 1.0686435884581117e+01
loadshed[innode_1] 0
loadshed[innode_2] 0
loadshed[innode_3] 0
loadshed[innode_4] 0
loadshed[innode_5] 0
loadshed[innode_6] 0
loadshed[innode_7] 0
loadshed[innode_8] 0
loadshed[source_1] -2.5476398284495416e-01
loadshed[source_2] -8.0874948147936943e-02
loadshed[source_3] 4.0323597766000585e-01
loadshed[sink_1] 0
loadshed[sink_2] 0
loadshed[sink_3] 0
loadshed[sink_4] 0
loadshed[sink_5] 0
loadshed[sink_6] 0
loadshed[sink_7] 0
loadshed[sink_8] 0
loadshed[sink_9] 0
loadshed[sink_10] 0
loadshed[sink_11] 0
loadshed[sink_12] 0.653438117783304
loadshed[sink_13] 0
loadshed[sink_14] 0
loadshed[sink_15] 0
loadshed[sink_16] 0
loadshed[sink_17] 0
loadshed[sink_18] 0
loadshed[sink_19] 0
loadshed[sink_20] 0
loadshed[sink_21] 0
loadshed[sink_22] 0
loadshed[sink_23] 0
loadshed[sink_24] 0
loadshed[sink_25] 0
loadshed[sink_26] 0
loadshed[sink_27] 0
loadshed[sink_28] 0
loadshed[sink_29] 0
flow[source_1,sink_3] 1.9836598659350960e+02
flow[innode_1,sink_16] 1.6354166666666970e+01
flow[innode_6,sink_13] 2.0136576607166567e+01
flow[sink_13,sink_14] 3.7824099404998996e+00
flow[sink_14,sink_10] -1.2571756726166768e+01
flow[sink_25,sink_26] 1.6891636274442374e+02
flow[sink_26,sink_9] 1.2778439043073266e+02
flow[sink_9,sink_18] 1.1143022376406599e+02
flow[sink_26,sink_4] 2.4777805647024479e+01
flow[sink_4,sink_20] 8.4236389803577936e+00
flow[sink_18,sink_6] 9.5076057097399314e+01
flow[sink_25,innode_8] -1.6565765326017322e+02
flow[sink_6,sink_7] 4.6013557097398461e+01
flow[sink_6,sink_22] 3.2708333333333641e+01
flow[sink_7,sink_24] 3.8376064115418892e+01
flow[sink_22,sink_1] 1.6354166666666970e+01
flow[sink_24,sink_21] 2.2021897448752220e+01
flow[sink_21,sink_12] 5.6677307820855516e+00
flow[sink_7,sink_5] -8.7166736846866115e+00
flow[sink_5,sink_17] -2.5070840351353240e+01
flow[sink_17,sink_4] 0
flow[sink_17,sink_8] -4.1425007018019940e+01
flow[sink_3,sink_23] 16.3541666666697
flow[sink_8,sink_20] -5.7779173684686612e+01
flow[sink_25,sink_20] 6.5709701370995560e+01
flow[sink_25,sink_15] -1.0545915412908062e+02
flow[sink_15,sink_29] -6.7324981891350433e+01
flow[sink_29,sink_28] 1.6354166666667879e+01
flow[sink_29,sink_2] 70.8425055710635
flow[sink_2,sink_15] 5.4488338904396869e+01
flow[sink_29,innode_7] -1.7087582079574850e+02
flow[innode_4,sink_19] 7.7988423392833951e+01
flow[sink_19,innode_3] 6.1634256726167450e+01
flow[innode_4,innode_5] 1.6354166666679703e+01
flow[sink_27,innode_5] -1.6354166666679703e+01
flow[sink_27,sink_19] 0
flow[sink_10,sink_11] 3.2708333333333641e+01
flow[sink_10,innode_2] 0
flow[sink_10,innode_3] -6.1634256726167450e+01
flow[innode_6,sink_25] -2.0136576607166567e+01
flow[sink_11,innode_1] 1.6354166666666970e+01
flow[sink_19,innode_2] 0
flow[source_3,innode_4] 9.4342590059513654e+01
flow[source_2,innode_7] 1.7087582079574850e+02
flow[sink_3,innode_8] 1.6565765326017322e+02
pressure[innode_1] 7.4284145112008815e+01
pressure[innode_2] 7.7853740252720911e+01
pressure[innode_3] 7.7717258170523266e+01
pressure[innode_4] 81.01325
pressure[innode_5] 8.1002000741808772e+01
pressure[innode_6] 7.3958998505525940e+01
pressure[innode_7] 81.01325
pressure[innode_8] 8.0350188285371445e+01
pressure[source_1] 81.01325
pressure[source_2] 81.01325
pressure[source_3] 81.01325
pressure[sink_1] 45.7423236783224
pressure[sink_2] 74.6484705822408
pressure[sink_3] 8.0350188285371445e+01
pressure[sink_4] 5.8912003938728382e+01
pressure[sink_5] 50.8369412504547
pressure[sink_6] 4.7843401288709771e+01
pressure[sink_7] 4.7211744829482441e+01
pressure[sink_8] 54.2676107737032
pressure[sink_9] 5.4414092706802393e+01
pressure[sink_10] 7.4435846419612361e+01
pressure[sink_11] 7.4284145112008815e+01
pressure[sink_12] 1.0132499999999998e+00
pressure[sink_13] 73.8479889238252
pressure[sink_14] 7.3841219979046585e+01
pressure[sink_15] 7.4470578164754414e+01
pressure[sink_16] 7.3262495277191135e+01
pressure[sink_17] 5.2704537639391489e+01
pressure[sink_18] 5.0382215091833565e+01
pressure[sink_19] 7.7853740252720911e+01
pressure[sink_20] 5.8294006615345765e+01
pressure[sink_21] 3.0301388083800238e+00
pressure[sink_22] 4.6806092820677407e+01
pressure[sink_23] 8.0185470273711658e+01
pressure[sink_24] 3.2740108618420241e+00
pressure[sink_25] 7.3958998505525940e+01
pressure[sink_26] 6.2062318276514866e+01
pressure[sink_27] 8.0866291377726043e+01
pressure[sink_28] 7.6147708925355445e+01
pressure[sink_29] 7.6442991198972621e+01
interdiction[source_1,sink_3] 0
interdiction[innode_1,sink_16] 0
interdiction[innode_6,sink_13] 0
interdiction[sink_13,sink_14] 0
interdiction[sink_14,sink_10] 0
interdiction[sink_25,sink_26] 0
interdiction[sink_26,sink_9] 0
interdiction[sink_9,sink_18] 0
interdiction[sink_26,sink_4] 0
interdiction[sink_4,sink_20] 0
interdiction[sink_18,sink_6] 0
interdiction[sink_25,innode_8] 0
interdiction[sink_6,sink_7] 0
interdiction[sink_6,sink_22] 0
interdiction[sink_7,sink_24] 0
interdiction[sink_22,sink_1] 0
interdiction[sink_24,sink_21] 0
interdiction[sink_21,sink_12] 0
interdiction[sink_7,sink_5] 0
interdiction[sink_5,sink_17] 0
interdiction[sink_17,sink_4] 1
interdiction[sink_17,sink_8] 0
interdiction[sink_3,sink_23] 0
interdiction[sink_8,sink_20] 0
interdiction[sink_25,sink_20] 0
interdiction[sink_25,sink_15] 0
interdiction[sink_15,sink_29] 0
interdiction[sink_29,sink_28] 0
interdiction[sink_29,sink_2] 0
interdiction[sink_2,sink_15] 0
interdiction[sink_29,innode_7] 0
interdiction[innode_4,sink_19] 0
interdiction[sink_19,innode_3] 0
interdiction[innode_4,innode_5] 0
interdiction[sink_27,innode_5] 0
interdiction[sink_27,sink_19] 1
interdiction[sink_10,sink_11] 0
interdiction[sink_10,innode_2] 1
interdiction[sink_10,innode_3] 0
interdiction[innode_6,sink_25] 0
interdiction[sink_11,innode_1] 0
interdiction[sink_19,innode_2] 0
interdiction[source_3,innode_4] 0
interdiction[source_2,innode_7] 0
interdiction[sink_3,innode_8] 0
WCcheckFlow[source_1,sink_3] 39
WCcheckFlow[innode_1,sink_16] 1
WCcheckFlow[innode_6,sink_13] 13
WCcheckFlow[sink_13,sink_14] 12
WCcheckFlow[sink_14,sink_10] 11
WCcheckFlow[sink_25,sink_26] 15
WCcheckFlow[sink_26,sink_9] 12
WCcheckFlow[sink_9,sink_18] 11
WCcheckFlow[sink_26,sink_4] 2
WCcheckFlow[sink_4,sink_20] 1
WCcheckFlow[sink_18,sink_6] 10
WCcheckFlow[sink_25,innode_8] -36
WCcheckFlow[sink_6,sink_7] 7
WCcheckFlow[sink_6,sink_22] 2
WCcheckFlow[sink_7,sink_24] 3
WCcheckFlow[sink_22,sink_1] 1
WCcheckFlow[sink_24,sink_21] 2
WCcheckFlow[sink_21,sink_12] 1
WCcheckFlow[sink_7,sink_5] 3
WCcheckFlow[sink_5,sink_17] 2
WCcheckFlow[sink_17,sink_4] 0
WCcheckFlow[sink_17,sink_8] 1
WCcheckFlow[sink_3,sink_23] 1
WCcheckFlow[sink_8,sink_20] 0
WCcheckFlow[sink_25,sink_20] 0
WCcheckFlow[sink_25,sink_15] 6
WCcheckFlow[sink_15,sink_29] 5
WCcheckFlow[sink_29,sink_28] 1
WCcheckFlow[sink_29,sink_2] 1
WCcheckFlow[sink_2,sink_15] 0
WCcheckFlow[sink_29,innode_7] 2
WCcheckFlow[innode_4,sink_19] -4
WCcheckFlow[sink_19,innode_3] -6
WCcheckFlow[innode_4,innode_5] 2
WCcheckFlow[sink_27,innode_5] -1
WCcheckFlow[sink_27,sink_19] 0
WCcheckFlow[sink_10,sink_11] 3
WCcheckFlow[sink_10,innode_2] 0
WCcheckFlow[sink_10,innode_3] 7
WCcheckFlow[innode_6,sink_25] -14
WCcheckFlow[sink_11,innode_1] 2
WCcheckFlow[sink_19,innode_2] 1
WCcheckFlow[source_3,innode_4] -1
WCcheckFlow[source_2,innode_7] -1
WCcheckFlow[sink_3,innode_8] 37
